language Essence 1.3

letting bot_end be [167, 221, 142, 223, 384, 326, 197, 9, 198, 229, 302, 374, 85, 215, 93, 333, 43, 114; int(1..18)]
letting bot_start be [3, 276, 40, 122, 311, 302, 334, 205, 290, 103, 204, 43, 366, 128, 333, 101, 273, 253; int(1..18)]
letting bots be 18
letting buffer_col be 2
letting buffer_row be 2
letting corridor_size be 1
letting n_shelves_col be 3
letting n_shelves_row be 13
letting shelf_col_size be 2
letting shelf_row_size be 1
